benchmarks_CP/INST_36x36/45/inst36x36_45_69.dzn
S=6;
start=[|
-1,	4,	-1,	30,	15,	-1,	10,	-1,	-1,	-1,	-1,	-1,	-1,	22,	11,	-1,	-1,	-1,	32,	17,	-1,	-1,	5,	-1,	9,	-1,	-1,	-1,	19,	-1,	-1,	28,	12,	-1,	-1,	-1|
-1,	-1,	-1,	11,	9,	-1,	-1,	30,	-1,	-1,	15,	-1,	-1,	-1,	-1,	-1,	-1,	-1,	-1,	-1,	-1,	-1,	-1,	24,	-1,	16,	-1,	-1,	-1,	5,	-1,	-1,	-1,	29,	35,	-1|
24,	3,	8,	1,	-1,	32,	-1,	35,	-1,	-1,	-1,	27,	-1,	-1,	-1,	-1,	7,	36,	-1,	11,	-1,	28,	-1,	18,	-1,	-1,	-1,	-1,	-1,	-1,	-1,	-1,	21,	-1,	-1,	9|
-1,	-1,	5,	36,	18,	-1,	14,	-1,	11,	20,	17,	9,	28,	-1,	13,	30,	21,	-1,	-1,	-1,	-1,	23,	-1,	35,	1,	-1,	-1,	3,	-1,	27,	-1,	-1,	32,	10,	24,	-1|
21,	-1,	-1,	-1,	28,	-1,	-1,	-1,	-1,	-1,	13,	-1,	5,	32,	12,	-1,	-1,	-1,	-1,	-1,	-1,	3,	29,	26,	23,	-1,	-1,	-1,	-1,	-1,	-1,	-1,	16,	-1,	-1,	-1|
34,	6,	-1,	-1,	31,	35,	33,	-1,	32,	-1,	-1,	-1,	-1,	-1,	-1,	-1,	18,	-1,	-1,	-1,	9,	-1,	-1,	-1,	-1,	30,	17,	-1,	28,	13,	-1,	-1,	-1,	4,	-1,	2|
-1,	-1,	-1,	22,	-1,	-1,	-1,	-1,	-1,	10,	9,	19,	-1,	14,	-1,	-1,	3,	-1,	-1,	-1,	-1,	-1,	31,	-1,	-1,	23,	-1,	-1,	-1,	1,	-1,	-1,	-1,	7,	-1,	-1|
-1,	17,	11,	-1,	1,	-1,	-1,	-1,	-1,	4,	-1,	7,	-1,	-1,	8,	2,	-1,	25,	-1,	-1,	-1,	-1,	-1,	-1,	-1,	9,	19,	33,	-1,	-1,	-1,	-1,	13,	-1,	-1,	28|
4,	-1,	2,	28,	24,	-1,	18,	-1,	17,	-1,	-1,	35,	-1,	29,	-1,	33,	30,	20,	26,	-1,	13,	-1,	-1,	8,	-1,	31,	-1,	22,	21,	16,	-1,	-1,	10,	-1,	19,	-1|
-1,	-1,	-1,	9,	-1,	-1,	20,	27,	14,	13,	6,	25,	21,	-1,	23,	36,	-1,	-1,	24,	-1,	3,	2,	-1,	-1,	7,	11,	-1,	-1,	12,	28,	-1,	-1,	-1,	-1,	1,	26|
10,	31,	-1,	3,	-1,	5,	-1,	28,	-1,	33,	-1,	12,	-1,	-1,	-1,	-1,	32,	-1,	-1,	18,	-1,	-1,	-1,	7,	-1,	-1,	15,	8,	-1,	36,	4,	29,	2,	-1,	-1,	20|
20,	33,	18,	-1,	21,	7,	29,	-1,	-1,	-1,	32,	36,	27,	-1,	16,	-1,	6,	-1,	9,	30,	4,	1,	-1,	19,	-1,	25,	13,	2,	-1,	10,	23,	-1,	35,	-1,	3,	14|
-1,	-1,	-1,	-1,	-1,	1,	24,	-1,	-1,	2,	-1,	8,	-1,	31,	-1,	-1,	-1,	30,	15,	26,	10,	7,	18,	-1,	36,	19,	-1,	-1,	16,	33,	-1,	3,	-1,	-1,	-1,	17|
-1,	29,	-1,	-1,	-1,	-1,	35,	-1,	33,	23,	27,	14,	12,	-1,	19,	-1,	-1,	-1,	31,	-1,	-1,	-1,	-1,	13,	18,	-1,	-1,	-1,	3,	9,	-1,	-1,	7,	-1,	-1,	-1|
33,	14,	-1,	-1,	-1,	34,	7,	5,	29,	25,	-1,	4,	-1,	-1,	26,	27,	-1,	-1,	16,	8,	-1,	-1,	3,	30,	11,	-1,	-1,	-1,	-1,	-1,	-1,	-1,	18,	15,	-1,	-1|
26,	-1,	22,	24,	16,	3,	32,	-1,	-1,	30,	-1,	-1,	35,	1,	25,	8,	-1,	-1,	-1,	-1,	-1,	36,	11,	-1,	20,	-1,	-1,	-1,	29,	2,	13,	-1,	-1,	21,	-1,	-1|
-1,	35,	21,	6,	27,	-1,	-1,	3,	-1,	-1,	26,	-1,	-1,	-1,	14,	18,	15,	-1,	25,	-1,	1,	29,	-1,	32,	-1,	-1,	34,	5,	-1,	-1,	-1,	-1,	-1,	8,	-1,	-1|
19,	-1,	31,	-1,	-1,	8,	-1,	-1,	34,	36,	22,	28,	-1,	-1,	3,	-1,	11,	-1,	-1,	24,	27,	35,	33,	4,	17,	-1,	-1,	-1,	30,	25,	-1,	14,	26,	-1,	-1,	-1|
-1,	-1,	30,	-1,	35,	2,	-1,	-1,	16,	-1,	-1,	-1,	-1,	-1,	32,	-1,	-1,	-1,	36,	-1,	-1,	-1,	-1,	-1,	-1,	34,	9,	-1,	-1,	-1,	31,	10,	-1,	33,	-1,	24|
7,	-1,	-1,	-1,	-1,	-1,	-1,	-1,	23,	-1,	24,	-1,	8,	10,	31,	-1,	5,	15,	29,	19,	18,	-1,	26,	16,	-1,	-1,	-1,	-1,	33,	-1,	35,	27,	-1,	-1,	-1,	21|
-1,	26,	-1,	-1,	29,	4,	21,	2,	36,	9,	-1,	32,	16,	3,	-1,	35,	-1,	-1,	-1,	-1,	-1,	-1,	10,	-1,	15,	24,	-1,	17,	27,	-1,	18,	11,	-1,	22,	-1,	-1|
31,	23,	16,	-1,	8,	33,	27,	20,	15,	-1,	19,	10,	30,	26,	-1,	-1,	-1,	22,	-1,	-1,	6,	-1,	24,	11,	-1,	5,	-1,	18,	1,	-1,	36,	-1,	3,	-1,	29,	-1|
27,	-1,	36,	-1,	-1,	-1,	30,	33,	-1,	-1,	35,	-1,	-1,	19,	-1,	11,	-1,	-1,	-1,	31,	12,	-1,	23,	1,	-1,	6,	16,	-1,	10,	3,	-1,	-1,	-1,	2,	-1,	-1|
6,	24,	10,	21,	22,	-1,	13,	-1,	-1,	34,	-1,	-1,	36,	-1,	-1,	23,	-1,	-1,	-1,	-1,	-1,	-1,	-1,	-1,	-1,	12,	31,	-1,	8,	-1,	19,	16,	-1,	-1,	7,	-1|
-1,	1,	-1,	4,	-1,	-1,	31,	-1,	28,	-1,	-1,	2,	-1,	8,	17,	-1,	-1,	-1,	10,	16,	24,	-1,	27,	-1,	33,	-1,	-1,	20,	-1,	-1,	32,	30,	6,	-1,	26,	-1|
28,	-1,	-1,	-1,	-1,	30,	-1,	-1,	-1,	24,	1,	-1,	11,	-1,	35,	-1,	31,	32,	18,	22,	26,	-1,	-1,	23,	-1,	-1,	-1,	-1,	2,	21,	-1,	34,	33,	-1,	16,	-1|
22,	-1,	-1,	-1,	33,	6,	5,	29,	-1,	8,	-1,	-1,	-1,	-1,	20,	-1,	26,	-1,	35,	21,	-1,	-1,	-1,	-1,	-1,	10,	23,	-1,	34,	4,	-1,	-1,	-1,	1,	-1,	-1|
18,	21,	7,	26,	10,	16,	-1,	11,	6,	-1,	-1,	-1,	-1,	-1,	27,	24,	23,	-1,	-1,	-1,	8,	-1,	-1,	-1,	35,	-1,	-1,	-1,	9,	-1,	3,	-1,	31,	-1,	13,	-1|
13,	-1,	14,	-1,	-1,	24,	-1,	-1,	27,	-1,	21,	18,	25,	-1,	29,	-1,	36,	-1,	-1,	3,	34,	4,	-1,	-1,	-1,	-1,	-1,	16,	-1,	-1,	5,	-1,	23,	12,	22,	10|
-1,	-1,	32,	27,	36,	31,	-1,	-1,	-1,	26,	33,	-1,	34,	-1,	-1,	-1,	-1,	4,	-1,	-1,	-1,	11,	-1,	-1,	12,	-1,	-1,	-1,	-1,	-1,	-1,	-1,	29,	-1,	21,	35|
16,	-1,	-1,	5,	2,	27,	4,	19,	-1,	14,	-1,	33,	-1,	6,	-1,	31,	-1,	-1,	11,	-1,	-1,	26,	-1,	-1,	-1,	-1,	-1,	-1,	-1,	24,	-1,	35,	-1,	32,	-1,	-1|
-1,	-1,	3,	-1,	-1,	-1,	11,	-1,	5,	-1,	7,	-1,	-1,	-1,	30,	4,	29,	26,	-1,	23,	-1,	16,	14,	-1,	-1,	35,	10,	-1,	6,	19,	24,	13,	-1,	-1,	-1,	-1|
-1,	9,	-1,	-1,	-1,	29,	8,	18,	-1,	17,	12,	-1,	23,	-1,	-1,	-1,	1,	3,	-1,	-1,	-1,	-1,	-1,	-1,	16,	27,	4,	-1,	7,	15,	21,	36,	-1,	-1,	10,	11|
-1,	-1,	-1,	8,	6,	-1,	-1,	-1,	10,	21,	23,	-1,	14,	16,	-1,	-1,	12,	-1,	17,	29,	31,	18,	9,	-1,	-1,	-1,	-1,	-1,	-1,	-1,	27,	-1,	1,	-1,	5,	-1|
-1,	7,	-1,	-1,	-1,	-1,	25,	13,	2,	-1,	29,	-1,	33,	-1,	-1,	-1,	-1,	9,	3,	27,	-1,	-1,	-1,	21,	-1,	17,	1,	-1,	-1,	-1,	15,	-1,	22,	6,	14,	-1|
-1,	12,	24,	31,	-1,	-1,	6,	-1,	-1,	32,	-1,	-1,	-1,	27,	5,	-1,	34,	-1,	20,	-1,	30,	8,	1,	-1,	14,	18,	33,	11,	-1,	-1,	16,	-1,	-1,	-1,	-1,	23|];
